c numero: 50
c nombre: n-45-d-0.3
c densidad: 0.3
p edges 45 300
e 1 7
e 1 9
e 1 10
e 1 11
e 1 14
e 1 16
e 1 20
e 1 41
e 1 43
e 1 44
e 2 6
e 2 7
e 2 11
e 2 12
e 2 16
e 2 18
e 2 19
e 2 20
e 2 27
e 2 34
e 2 35
e 2 40
e 2 41
e 2 45
e 3 5
e 3 8
e 3 12
e 3 17
e 3 26
e 3 27
e 3 32
e 3 38
e 3 43
e 3 44
e 3 45
e 4 5
e 4 9
e 4 11
e 4 14
e 4 17
e 4 23
e 4 25
e 4 28
e 4 29
e 4 31
e 4 33
e 4 35
e 4 36
e 4 37
e 4 40
e 4 42
e 4 43
e 4 44
e 4 45
e 5 7
e 5 11
e 5 13
e 5 14
e 5 15
e 5 16
e 5 18
e 5 20
e 5 21
e 5 24
e 5 25
e 5 26
e 5 27
e 5 30
e 5 33
e 5 35
e 5 37
e 5 38
e 5 39
e 5 40
e 5 42
e 6 7
e 6 8
e 6 10
e 6 13
e 6 14
e 6 16
e 6 26
e 6 29
e 6 35
e 6 37
e 6 38
e 6 41
e 7 10
e 7 12
e 7 16
e 7 20
e 7 21
e 7 23
e 7 31
e 7 32
e 7 36
e 7 38
e 7 44
e 7 45
e 8 21
e 8 27
e 8 33
e 8 34
e 8 35
e 8 37
e 8 38
e 8 42
e 8 43
e 9 10
e 9 11
e 9 17
e 9 26
e 9 29
e 9 31
e 9 32
e 9 35
e 9 37
e 9 38
e 9 39
e 9 43
e 9 44
e 9 45
e 10 12
e 10 13
e 10 24
e 10 27
e 10 28
e 10 29
e 10 30
e 10 31
e 10 33
e 10 35
e 10 39
e 10 42
e 10 43
e 11 18
e 11 21
e 11 31
e 11 39
e 11 45
e 12 15
e 12 18
e 12 22
e 12 23
e 12 24
e 12 28
e 12 39
e 13 16
e 13 18
e 13 21
e 13 26
e 13 29
e 13 34
e 13 39
e 13 40
e 13 43
e 14 16
e 14 23
e 14 33
e 14 45
e 15 19
e 15 21
e 15 23
e 15 28
e 15 29
e 15 30
e 15 32
e 15 36
e 15 37
e 15 44
e 16 20
e 16 23
e 16 27
e 16 30
e 16 31
e 16 34
e 16 36
e 16 37
e 16 43
e 17 22
e 17 25
e 17 28
e 17 29
e 17 34
e 17 37
e 17 42
e 17 43
e 17 44
e 18 19
e 18 23
e 18 28
e 18 33
e 18 34
e 18 35
e 18 42
e 19 21
e 19 23
e 19 36
e 19 39
e 19 40
e 19 42
e 19 44
e 20 22
e 20 23
e 20 27
e 20 33
e 20 35
e 20 39
e 20 42
e 21 23
e 21 26
e 21 27
e 21 30
e 21 38
e 21 43
e 22 23
e 22 25
e 22 31
e 22 32
e 22 36
e 22 39
e 22 44
e 22 45
e 23 24
e 23 32
e 23 39
e 24 28
e 24 29
e 24 31
e 24 32
e 24 40
e 24 41
e 24 45
e 25 27
e 25 31
e 25 34
e 25 38
e 25 43
e 25 45
e 26 29
e 26 34
e 26 40
e 26 42
e 27 29
e 27 30
e 27 32
e 27 38
e 27 41
e 27 43
e 28 32
e 28 43
e 28 45
e 29 30
e 29 33
e 29 34
e 29 35
e 29 36
e 29 43
e 30 33
e 30 42
e 31 32
e 31 33
e 31 35
e 31 36
e 31 37
e 31 38
e 31 39
e 31 45
e 32 33
e 32 36
e 32 40
e 32 42
e 32 44
e 32 45
e 33 37
e 33 40
e 33 41
e 33 42
e 33 43
e 33 45
e 34 35
e 34 37
e 34 40
e 34 43
e 34 44
e 35 41
e 35 44
e 36 45
e 37 40
e 37 44
e 38 40
e 38 44
e 38 45
e 39 41
e 39 43
e 40 41
e 40 43
e 40 45
e 42 43
e 43 44
